* UNL main file generated by charmmgen
* author: Victor Bazterra 2004 CHPC
* 

Read rtf card name ligand_201_CHARMM.rtf

Read param card name ligand_201_CHARMM.prm

Read sequence card
* Reading the coordinates of residue
* 
    1
UNL
Generate UNL setup
Read coor card free
* Residues coordinate
* 
   37
    1    1 UNL  C1    -1.35500   1.38100   3.25900
    2    1 UNL  C2     0.05900   0.87900   3.01500
    3    1 UNL  C3     0.06900  -0.60700   2.65200
    4    1 UNL  N1     1.42400  -1.09500   2.37200
    5    1 UNL  C4     2.24800  -1.41700   3.52600
    6    1 UNL  C5     2.06000  -0.98600   1.14000
    7    1 UNL  O1     3.27800  -1.10700   1.00200
    8    1 UNL  C6     1.24200  -0.64400  -0.04500
    9    1 UNL  C7     1.53400   0.49000  -0.70100
   10    1 UNL  N2     0.88100   0.94100  -1.82100
   11    1 UNL  C8    -0.08300   0.13700  -2.44800
   12    1 UNL  C9    -0.72300   0.56400  -3.61300
   13    1 UNL  C10   -1.72200  -0.22100  -4.20000
   14    1 UNL  C11   -2.11700  -1.43100  -3.61600
   15    1 UNL  C12   -3.16500  -2.28500  -4.26800
   16    1 UNL  C13   -1.48500  -1.86000  -2.44300
   17    1 UNL  C14   -0.48500  -1.07300  -1.85800
   18    1 UNL  C15    0.17900  -1.52000  -0.60200
   19    1 UNL  O2    -0.15100  -2.57200  -0.06400
   20    1 UNL  H1    -1.97400   1.26200   2.36400
   21    1 UNL  H2    -1.34100   2.44300   3.52300
   22    1 UNL  H3    -1.82900   0.83300   4.08000
   23    1 UNL  H4     0.66100   1.05100   3.91500
   24    1 UNL  H5     0.51700   1.46800   2.21200
   25    1 UNL  H6    -0.34900  -1.20700   3.46900
   26    1 UNL  H7    -0.57700  -0.76700   1.78700
   27    1 UNL  H8     2.54900  -0.48800   4.01900
   28    1 UNL  H9     3.14600  -1.96800   3.23500
   29    1 UNL  H10    1.67300  -2.03500   4.22200
   30    1 UNL  H11    2.33800   1.14400  -0.36900
   31    1 UNL  H12    1.32400   1.67100  -2.36700
   32    1 UNL  H13   -0.45000   1.50700  -4.07900
   33    1 UNL  H14   -2.19600   0.12400  -5.11700
   34    1 UNL  H15   -3.88900  -1.66900  -4.81100
   35    1 UNL  H16   -3.72300  -2.85800  -3.51900
   36    1 UNL  H17   -2.69600  -2.98200  -4.96900
   37    1 UNL  H18   -1.76800  -2.80400  -1.98000
Energy ihbfrq 0 inbfrq -1
Open write card unit 14 name tmp.out
Write energy card unit 14
* UNL energy before the optimization
* 
Minimise Abnr Nstep 5000 Tolgrd 0.00001
Write energy card unit 14
* UNL energy after optimization
* 
Write coor card unit 14
* UNL energy after optimization
* 
