* UNL main file generated by charmmgen
* author: Victor Bazterra 2004 CHPC
* 

Read rtf card name ligand_214_CHARMM.rtf

Read param card name ligand_214_CHARMM.prm

Read sequence card
* Reading the coordinates of residue
* 
    1
UNL
Generate UNL setup
Read coor card free
* Residues coordinate
* 
   38
    1    1 UNL  C1    -2.26700   0.84600   1.14100
    2    1 UNL  C2    -0.78800   0.69600   1.37700
    3    1 UNL  C3    -0.24200   1.08900   2.61400
    4    1 UNL  C4     1.12300   0.95000   2.86100
    5    1 UNL  C5     1.72600   1.34700   4.12200
    6    1 UNL  C6     3.04100   1.18800   4.30100
    7    1 UNL  C7     3.91700   0.62100   3.26200
    8    1 UNL  O1     5.11900   0.48900   3.46200
    9    1 UNL  O2     3.31700   0.25000   2.06700
   10    1 UNL  C8     1.93100   0.41200   1.86500
   11    1 UNL  C9     1.41500   0.00900   0.63400
   12    1 UNL  C10    0.04900   0.14700   0.38400
   13    1 UNL  O3    -0.57600  -0.22000  -0.77900
   14    1 UNL  C11    0.23300  -0.73900  -1.83100
   15    1 UNL  C12   -0.63000  -1.05200  -3.06200
   16    1 UNL  O4     0.24900  -1.40600  -4.14700
   17    1 UNL  C13   -1.68600  -2.17900  -2.89400
   18    1 UNL  C14   -2.86700  -1.75900  -2.01700
   19    1 UNL  C15   -1.09100  -3.49200  -2.37000
   20    1 UNL  O5    -2.23300  -2.43800  -4.20700
   21    1 UNL  H1    -2.74500   1.41900   1.94200
   22    1 UNL  H2    -2.74200  -0.13900   1.10000
   23    1 UNL  H3    -2.45400   1.38000   0.20400
   24    1 UNL  H4    -0.89300   1.50600   3.38000
   25    1 UNL  H5     1.09900   1.76700   4.90100
   26    1 UNL  H6     3.53000   1.47100   5.22500
   27    1 UNL  H7     2.10100  -0.40500  -0.09700
   28    1 UNL  H8     0.98600   0.00600  -2.12200
   29    1 UNL  H9     0.76500  -1.64100  -1.50800
   30    1 UNL  H10   -1.14400  -0.13300  -3.37200
   31    1 UNL  H11   -0.31100  -1.37300  -4.94600
   32    1 UNL  H12   -3.27800  -0.79800  -2.34800
   33    1 UNL  H13   -3.68500  -2.48600  -2.09700
   34    1 UNL  H14   -2.59500  -1.68000  -0.96200
   35    1 UNL  H15   -0.24400  -3.81700  -2.98500
   36    1 UNL  H16   -1.83300  -4.29800  -2.41800
   37    1 UNL  H17   -0.75300  -3.40400  -1.33300
   38    1 UNL  H18   -1.64700  -3.08300  -4.64200
Energy ihbfrq 0 inbfrq -1
Open write card unit 14 name tmp.out
Write energy card unit 14
* UNL energy before the optimization
* 
Minimise Abnr Nstep 5000 Tolgrd 0.00001
Write energy card unit 14
* UNL energy after optimization
* 
Write coor card unit 14
* UNL energy after optimization
* 
